p cnf 44 113
1 2 3 4 5 0
-1 -2 0
-1 -3 0
-1 -4 0
-1 -5 0
-2 -3 0
-2 -4 0
-2 -5 0
-3 -4 0
-3 -5 0
-4 -5 0
6 7 8 0
-6 -7 0
-6 -8 0
-7 -8 0
9 10 11 0
-9 -10 0
-9 -11 0
-10 -11 0
12 13 14 15 0
-12 -13 0
-12 -14 0
-12 -15 0
-13 -14 0
-13 -15 0
-14 -15 0
16 17 18 19 0
-16 -17 0
-16 -18 0
-16 -19 0
-17 -18 0
-17 -19 0
-18 -19 0
20 21 22 23 0
-20 -21 0
-20 -22 0
-20 -23 0
-21 -22 0
-21 -23 0
-22 -23 0
24 25 26 0
-24 -25 0
-24 -26 0
-25 -26 0
27 28 29 0
-27 -28 0
-27 -29 0
-28 -29 0
30 31 32 33 0
-30 -31 0
-30 -32 0
-30 -33 0
-31 -32 0
-31 -33 0
-32 -33 0
34 35 36 0
-34 -35 0
-34 -36 0
-35 -36 0
37 38 0
-37 -38 0
39 40 0
-39 -40 0
41 42 43 44 0
-41 -42 0
-41 -43 0
-41 -44 0
-42 -43 0
-42 -44 0
-43 -44 0
-1 -9 0
-2 -10 0
-3 -11 0
-6 -9 0
-7 -10 0
-8 -11 0
-7 -12 0
-8 -13 0
-6 -16 0
-7 -17 0
-8 -18 0
-7 -37 0
-8 -38 0
-10 -12 0
-11 -13 0
-9 -20 0
-10 -21 0
-11 -22 0
-9 -24 0
-10 -25 0
-12 -21 0
-13 -22 0
-14 -23 0
-12 -25 0
-15 -26 0
-12 -35 0
-14 -36 0
-12 -37 0
-13 -38 0
-16 -30 0
-18 -31 0
-19 -33 0
-16 -34 0
-17 -35 0
-16 -39 0
-17 -40 0
-21 -37 0
-22 -38 0
-24 -27 0
-25 -28 0
-37 -41 0
-38 -42 0
-40 -41 0
